(set-logic HORN)
(set-info :source |
    Benchmark: C_VC
    Output by Princess (http://www.philipp.ruemmer.org/princess.shtml)
|)
(set-info :status unknown)
(declare-fun inv_main19 (Int Int Int Int) Bool)
(declare-fun inv_main3 (Int Int Int Int) Bool)
(declare-fun inv_main7 (Int Int Int Int) Bool)
(assert (forall ((var0 Int)) (forall ((var1 Int)) (forall ((var2 Int)) (forall ((var3 Int)) (inv_main3 var2 var3 var0 var1 ) ) ) ) ) )
(assert (forall ((var0 Int)) (forall ((var1 Int)) (forall ((var2 Int)) (forall ((var3 Int)) (or (not (and (inv_main3 var1 var3 var0 var2 ) (<= 0 var3 ) ) ) (inv_main7 0 var3 0 0 ) ) ) ) ) ) )
(assert (forall ((var0 Int)) (forall ((var1 Int)) (forall ((var2 Int)) (forall ((var3 Int)) (or (not (and (inv_main7 var1 var3 var0 var2 ) (and (not (= (+ (+ var0 var2 ) (* (- 3) var3 ) ) 0 ) ) (not (<= 0 (+ (+ var3 (* (- 1) var1 ) ) (- 1) ) ) ) ) ) ) (inv_main19 var1 var3 var0 var2 ) ) ) ) ) ) )
(assert (forall ((var0 Int)) (forall ((var1 Int)) (forall ((var2 Int)) (forall ((var3 Int)) (forall ((var4 Int)) (or (not (and (inv_main7 var2 var4 var0 var3 ) (and (not (= var1 0 ) ) (<= 0 (+ (+ var4 (* (- 1) var2 ) ) (- 1) ) ) ) ) ) (inv_main7 (+ var2 1 ) var4 (+ var0 1 ) (+ var3 2 ) ) ) ) ) ) ) ) )
(assert (forall ((var0 Int)) (forall ((var1 Int)) (forall ((var2 Int)) (forall ((var3 Int)) (forall ((var4 Int)) (or (not (and (inv_main7 var2 var4 var0 var3 ) (and (= var1 0 ) (<= 0 (+ (+ var4 (* (- 1) var2 ) ) (- 1) ) ) ) ) ) (inv_main7 (+ var2 1 ) var4 (+ var0 2 ) (+ var3 1 ) ) ) ) ) ) ) ) )
(assert (forall ((var0 Int)) (forall ((var1 Int)) (forall ((var2 Int)) (forall ((var3 Int)) (not (inv_main19 var1 var3 var0 var2 ) ) ) ) ) ) )
(check-sat)
